10,6	0,0	13,0	14,6	0,0	0,0	0,0	0,0	0,0	16,0
17,1	13,1	0,0	19,9	18,2	0,0	0,0	13,7	0,0	0,0
0,0	0,0	19,5	0,0	6,7	13,6	0,0	0,0	15,3	0,0
18,3	0,0	18,1	0,0	0,0	0,0	9,3	0,0	0,0	0,0
0,0	6,5	0,0	10,7	5,1	0,0	0,0	13,6	0,0	0,0
0,0	16,1	17,5	0,0	13,3	8,3	0,0	0,0	9,8	0,0
0,0	6,8	0,0	12,4	0,0	0,0	12,9	0,0	0,0	6,9
13,5	0,0	12,0	0,0	0,0	0,0	0,0	0,0	0,0	18,1
0,0	11,0	0,0	16,6	15,9	0,0	0,0	19,0	0,0	0,0
0,0	0,0	10,1	0,0	0,0	6,1	10,0	0,0	0,0	12,2
0,0	19,2	0,0	0,0	19,1	0,0	15,6	0,0	6,4	13,6
6,0	0,0	8,5	0,0	17,2	0,0	18,9	7,5	18,8	0,0
0,0	6,4	0,0	0,0	0,0	9,2	0,0	19,1	5,1	11,3
19,7	17,2	12,1	0,0	0,0	18,5	0,0	6,9	15,0	0,0
7,7	0,0	9,1	0,0	11,9	13,5	6,4	18,0	0,0	0,0
0,0	16,1	0,0	12,6	0,0	11,7	0,0	11,1	0,0	0,0
18,5	0,0	14,0	8,6	9,5	0,0	0,0	13,4	0,0	0,0
0,0	0,0	14,2	0,0	0,0	6,5	18,7	0,0	6,7	7,8
7,2	0,0	0,0	8,2	10,6	17,3	8,1	6,1	0,0	14,1
0,0	19,0	0,0	9,2	0,0	0,0	17,6	0,0	14,5	13,8
									
3,4	3,8	3,9	2,7	2,8	3,4	4,1	2,9	4,6	4,9
